NAME: PointSet_Angle_40_2
TYPE: TSP
COMMENT: Points chosen discrete uniformly at random out of ${0, \ldots, 500}^2$.
DIMENSION: 40
EDGE_WEIGHT_TYPE: EUC_2D
NODE_COORD_SECTION
1 199 102
2 377 398
3 11 5
4 421 489
5 180 434
6 319 260
7 177 36
8 25 440
9 399 86
10 388 316
11 301 482
12 196 142
13 424 275
14 150 484
15 377 234
16 323 75
17 82 446
18 219 94
19 197 139
20 82 377
21 319 147
22 383 243
23 183 408
24 182 328
25 494 317
26 144 40
27 298 86
28 183 221
29 362 79
30 205 485
31 313 274
32 59 395
33 219 24
34 235 416
35 163 64
36 38 229
37 211 421
38 472 395
39 74 400
40 222 314
EOF
